p cnf 12 69
-4 -6 -5 0
11 -8 -2 0
-5 1 -8 0
-5 9 2 0
3 4 10 0
-2 -4 8 0
-1 -4 -5 0
8 5 4 0
10 -4 -7 0
4 5 3 0
-2 -6 5 0
6 12 10 0
9 -2 -7 0
5 -1 -3 0
-9 -8 5 0
-3 -2 -12 0
7 -4 9 0
-8 7 5 0
-4 11 3 0
12 -8 -9 0
2 -12 -4 0
11 -3 6 0
10 -12 6 0
-9 -10 11 0
12 -7 6 0
7 11 5 0
-11 -7 -6 0
1 7 4 0
10 3 1 0
4 9 -10 0
-7 -10 -4 0
-7 8 9 0
-8 -11 10 0
11 2 1 0
-4 -9 -10 0
1 -12 -8 0
10 12 -3 0
-1 2 6 0
5 9 3 0
-7 -1 -3 0
11 9 -6 0
-10 -12 -11 0
-2 -3 -5 0
-9 11 -7 0
11 -3 9 0
9 2 4 0
4 5 3 0
3 4 -1 0
-12 -7 -6 0
12 2 -9 0
9 7 -10 0
3 -1 4 0
-7 6 -9 0
7 -2 -9 0
-6 -9 -12 0
8 -3 11 0
-12 7 -6 0
1 -5 3 0
-1 5 10 0
1 -12 -6 0
-8 -9 -2 0
-12 2 -3 0
11 -8 -7 0
-11 3 1 0
-12 -2 -3 0
-7 10 -4 0
-2 1 8 0
-12 2 -5 0
4 8 3 0
